;; Mutation-Based Equivalence Benchmark
;; Source:     AutomatArk / instance13642.smt2
;; Mutations:  intersect_min_len_5, literal_char_inc, range_shrink_lo
;; Status:     sat
;;
;; Original regex vs mutated regex
;; Equivalence check: unsat ⟺ L(R1) = L(R2)

(set-info :smt-lib-version 2.6)
(set-info :category "mutation")
(set-info :status sat)
(set-logic QF_S)


;; R1: original
;; R2: mutated (intersect_min_len_5, literal_char_inc, range_shrink_lo)
(assert
  (not
    (=
      (re.++ (re.+ (re.union (re.range "0" "9") (re.range "A" "Z") (re.range "a" "z") (str.to_re "_"))) (str.to_re ",") (re.+ (re.comp (str.to_re "("))) (str.to_re "(") (re.+ (re.union (re.range "0" "9") (re.range "A" "Z") (re.range "a" "z") (str.to_re "_"))) (str.to_re ")") (re.+ (re.union (str.to_re " ") (str.to_re "\u{9}") (str.to_re "\u{a}") (str.to_re "\u{c}") (str.to_re "\u{d}"))) (re.+ (re.union (re.range "0" "9") (re.range "A" "Z") (re.range "a" "z") (str.to_re "_"))) (re.+ (re.union (str.to_re " ") (str.to_re "\u{9}") (str.to_re "\u{a}") (str.to_re "\u{c}") (str.to_re "\u{d}"))) (re.+ (re.range "0" "9")) (str.to_re "/") (re.+ (re.range "0" "9")) (re.+ (re.union (str.to_re " ") (str.to_re "\u{9}") (str.to_re "\u{a}") (str.to_re "\u{c}") (str.to_re "\u{d}"))) (re.opt (re.+ (re.range "0" "9"))) (str.to_re "\u{a}"))
      (re.++ (re.+ (re.union (re.range "0" "9") (re.range "B" "Z") (re.range "a" "z") (str.to_re "_"))) (str.to_re ",") (re.+ (re.comp (str.to_re ")"))) (str.to_re "(") (re.+ (re.union (re.range "0" "9") (re.range "A" "Z") (re.range "a" "z") (str.to_re "_"))) (str.to_re ")") (re.+ (re.union (str.to_re " ") (str.to_re "\u{9}") (str.to_re "\u{a}") (str.to_re "\u{c}") (str.to_re "\u{d}"))) (re.+ (re.union (re.range "0" "9") (re.range "A" "Z") (re.range "a" "z") (str.to_re "_"))) (re.+ (re.union (str.to_re " ") (str.to_re "\u{9}") (str.to_re "\u{a}") (str.to_re "\u{c}") (str.to_re "\u{d}"))) (re.+ (re.range "0" "9")) (str.to_re "/") (re.+ (re.range "0" "9")) (re.+ (re.union (str.to_re " ") (str.to_re "\u{9}") (str.to_re "\u{a}") (str.to_re "\u{c}") (str.to_re "\u{d}"))) (re.inter (re.opt (re.+ (re.range "0" "9"))) (re.++ ((_ re.loop 5 5) re.allchar) re.all)) (str.to_re "\u{a}")))))

(check-sat)
(exit)
